46 463
1 3 5 13 15 17 21 27 28 29 31 33 35 37 38 40 41 42
0 2 3 4 5 6 8 15 16 18 19 20 22 25 26 34 35 36 38 39 40 43
1 3 4 6 7 9 12 15 16 17 21 23 24 26 27 28 30 34 40 42 43 45
0 1 2 4 5 6 8 9 10 11 12 14 16 17 19 20 22 25 26 28 31 32 33 34 35 37 38 40 43 45
1 2 3 6 8 9 11 14 24 27 30 31 38 39 41 44
0 1 3 6 8 14 15 17 18 24 25 26 27 28 30 32 34 35 36 37 40 42 45
1 2 3 4 5 8 9 10 12 14 17 18 19 22 24 31 34 35 40 41 44 45
2 9 19 21 22 23 24 28 31 32 42 43
1 3 4 5 6 9 13 14 16 18 20 22 24 25 26 27 29 30 34 35 39 40 42 44
2 3 4 6 7 8 10 13 14 15 16 17 19 20 22 24 25 28 35 36 38 39 41 43 44
3 6 9 11 12 14 15 18 19 20 21 23 24 25 28 30 32 33 36 40 41 42 43 45
3 4 10 12 13 15 16 18 20 25 26 29 30 32 33 37 44 45
2 3 6 10 11 14 17 23 24 27 28 31 34 35 36 43
0 8 9 11 19 20 22 25 31 33 36 38 39 42 44 45
3 4 5 6 8 9 10 12 15 16 20 21 24 25 26 28 30 32 33 38 39 40 41
0 1 2 5 9 10 11 14 21 23 24 25 27 29 30 31 32 35 36 37 41 42 43
1 2 3 8 9 11 14 26 31 33 35 36 37 41 44
0 2 3 5 6 9 12 19 20 21 22 26 27 28 30 34 35 36 37 39 40 41 42 43 44
1 5 6 8 10 11 19 21 29 31 32 33 34 37 38 44
1 3 6 7 9 10 13 17 18 22 29 30 34 37 38 41 42
1 3 8 9 10 11 13 14 17 21 25 27 28 29 30 31 33 35 37 40 41 42 43 45
0 2 7 10 14 15 17 18 20 28 30 34 36 42 45
1 3 6 7 8 9 13 17 19 23 25 26 27 28 29 32 33 34 36 37 38 42
2 7 10 12 15 22 24 26 32 35 37 38 39 40 43 44 45
2 4 5 6 7 8 9 10 12 14 15 23 26 28 30 33 36 37 38 39 40 44
1 3 5 8 9 10 11 13 14 15 20 22 26 28 29 30 31 33 37 38 42 43
1 2 3 5 8 11 14 16 17 22 23 24 25 27 29 35 37 38 41 43 44 45
0 2 4 5 8 12 15 17 20 22 26 28 29 32 33 35 37 39 40 41 43 45
0 2 3 5 7 9 10 12 14 17 20 21 22 24 25 27 32 35 40 41
0 8 11 15 18 19 20 22 25 26 27 33 36 40 44
2 4 5 8 10 11 14 15 17 19 20 21 24 25 31 32 34 35 36 37 40 41 42 44
0 3 4 6 7 12 13 15 16 18 20 25 30 37 40 41 42 43 45
3 5 7 10 11 14 15 18 22 23 27 28 30 33 38 39 40 42 45
0 3 10 11 13 14 16 18 20 22 24 25 27 29 32 34 37 44 45
1 2 3 5 6 8 12 17 18 19 21 22 30 33 35 37 38 43 44
0 1 3 5 6 8 9 12 15 16 17 20 23 26 27 28 30 34 38 39 41 45
1 5 9 10 12 13 15 16 17 21 22 24 29 30 38 39 42 44
0 3 5 11 15 16 17 18 19 20 22 23 24 25 26 27 30 31 33 34 40 45
0 1 3 4 9 13 14 18 19 22 23 24 25 26 32 34 35 36 40 43
1 4 8 9 13 14 17 23 24 27 32 35 36 41 43 45
0 1 2 3 5 6 8 10 14 17 20 23 24 27 28 29 30 31 32 37 38 43 45
0 4 6 9 10 14 15 16 17 19 20 26 27 28 30 31 35 39 44
0 2 5 7 8 10 13 15 17 19 20 21 22 25 30 31 32 36 44
1 2 3 7 9 10 12 15 17 20 23 25 26 27 31 34 38 39 40 45
4 6 8 9 11 13 16 17 18 23 24 26 29 30 33 34 36 41 42
2 3 5 6 10 11 13 20 21 23 26 27 31 32 33 35 37 39 40 43
